17	4
21	18	19	19	
0	0	0	0	0	3	2	3	4	
2	9	0	8	0	3	7	9	17	
2	3	0	3	8	2	9	17	
10	0	7	10	2	3	5	17	17	
6	7	0	0	3	2	6	17	
50	0	8	0	2	1	15	
125	0	0	8	7	3	8	10	11	
50	5	3	7	0	1	13	
200	7	0	0	7	3	12	14	17	
225	2	0	7	2	2	17	17	
150	4	0	3	0	3	16	17	17	
100	0	3	0	0	3	16	17	17	
1	10	0	1	0	3	14	17	17	
2	0	6	3	1	3	15	17	17	
7	0	0	9	1	2	17	17	
4	0	2	2	0	1	17	
0	0	0	0	0	0	
